
Gurobi 8.1.1 (mac64) logging started Thu Oct 17 11:11:56 2019

Academic license - for non-commercial use only

Gurobi Optimizer version 8.1.1 build v8.1.1rc0 (mac64)
Copyright (c) 2019, Gurobi Optimization, LLC

Read LP format model from file wormhole_78e468b6-ad4c-4591-bc06-a9aa82f0fb75.lp
Reading time = 0.00 seconds
obj: 67 rows, 39 columns, 154 nonzeros
Optimize a model with 67 rows, 39 columns and 154 nonzeros
Variable types: 0 continuous, 39 integer (39 binary)
Coefficient statistics:
  Matrix range     [1e+00, 1e+00]
  Objective range  [2e+00, 2e+00]
  Bounds range     [1e+00, 1e+00]
  RHS range        [1e+00, 1e+00]
Found heuristic solution: objective 18.0000000
Found heuristic solution: objective 12.0000000
Presolve removed 37 rows and 12 columns
Presolve time: 0.00s
Presolved: 30 rows, 27 columns, 77 nonzeros
Variable types: 0 continuous, 27 integer (27 binary)

Root relaxation: objective 9.073171e+00, 26 iterations, 0.00 seconds

    Nodes    |    Current Node    |     Objective Bounds      |     Work
 Expl Unexpl |  Obj  Depth IntInf | Incumbent    BestBd   Gap | It/Node Time

*    0     0               0      10.0000000   10.00000  0.00%     -    0s

Explored 0 nodes (30 simplex iterations) in 0.01 seconds
Thread count was 4 (of 4 available processors)

Solution count 3: 10 12 18 

Optimal solution found (tolerance 1.00e-04)
Best objective 1.000000000000e+01, best bound 1.000000000000e+01, gap 0.0000%

Wrote result file 'ab186929-f89b-4320-9eb1-cd596f86747b.sol'


Gurobi 8.1.1 (mac64) logging started Thu Oct 17 11:12:34 2019

Academic license - for non-commercial use only

Gurobi Optimizer version 8.1.1 build v8.1.1rc0 (mac64)
Copyright (c) 2019, Gurobi Optimization, LLC

Read LP format model from file wormhole_662f5267-0136-4ff2-9e17-2d50e9b8677f.lp
Reading time = 0.00 seconds
obj: 67 rows, 39 columns, 154 nonzeros
Optimize a model with 67 rows, 39 columns and 154 nonzeros
Variable types: 0 continuous, 39 integer (39 binary)
Coefficient statistics:
  Matrix range     [1e+00, 1e+00]
  Objective range  [2e+00, 2e+00]
  Bounds range     [1e+00, 1e+00]
  RHS range        [1e+00, 1e+00]
Found heuristic solution: objective 18.0000000
Found heuristic solution: objective 12.0000000
Presolve removed 37 rows and 12 columns
Presolve time: 0.00s
Presolved: 30 rows, 27 columns, 77 nonzeros
Variable types: 0 continuous, 27 integer (27 binary)

Root relaxation: objective 9.073171e+00, 26 iterations, 0.00 seconds

    Nodes    |    Current Node    |     Objective Bounds      |     Work
 Expl Unexpl |  Obj  Depth IntInf | Incumbent    BestBd   Gap | It/Node Time

*    0     0               0      10.0000000   10.00000  0.00%     -    0s

Explored 0 nodes (31 simplex iterations) in 0.00 seconds
Thread count was 4 (of 4 available processors)

Solution count 3: 10 12 18 

Optimal solution found (tolerance 1.00e-04)
Best objective 1.000000000000e+01, best bound 1.000000000000e+01, gap 0.0000%

Wrote result file '4304da69-1e47-4038-86a2-1cdc8007eaac.sol'


Gurobi 8.1.1 (mac64) logging started Thu Oct 17 12:22:59 2019

Academic license - for non-commercial use only

Gurobi Optimizer version 8.1.1 build v8.1.1rc0 (mac64)
Copyright (c) 2019, Gurobi Optimization, LLC

Read LP format model from file wormhole_bdc80563-0dc7-4b96-a406-bc1bbbb46c0b.lp
Reading time = 0.00 seconds
obj: 67 rows, 39 columns, 154 nonzeros
Optimize a model with 67 rows, 39 columns and 154 nonzeros
Variable types: 0 continuous, 39 integer (39 binary)
Coefficient statistics:
  Matrix range     [1e+00, 1e+00]
  Objective range  [2e+00, 2e+00]
  Bounds range     [1e+00, 1e+00]
  RHS range        [1e+00, 1e+00]
Found heuristic solution: objective 18.0000000
Presolve removed 37 rows and 12 columns
Presolve time: 0.01s
Presolved: 30 rows, 27 columns, 77 nonzeros
Variable types: 0 continuous, 27 integer (27 binary)

Root relaxation: objective 9.073171e+00, 26 iterations, 0.00 seconds

    Nodes    |    Current Node    |     Objective Bounds      |     Work
 Expl Unexpl |  Obj  Depth IntInf | Incumbent    BestBd   Gap | It/Node Time

     0     0    9.07317    0   24   18.00000    9.07317  49.6%     -    0s
H    0     0                      12.0000000    9.07317  24.4%     -    0s
H    0     0                      10.0000000    9.07317  9.27%     -    0s

Explored 1 nodes (27 simplex iterations) in 0.02 seconds
Thread count was 4 (of 4 available processors)

Solution count 3: 10 12 18 

Optimal solution found (tolerance 1.00e-04)
Best objective 1.000000000000e+01, best bound 1.000000000000e+01, gap 0.0000%

Wrote result file '840743da-6141-4e55-82dc-efaed5463ab6.sol'


Gurobi 8.1.1 (mac64) logging started Thu Oct 17 12:23:11 2019

Academic license - for non-commercial use only

Gurobi Optimizer version 8.1.1 build v8.1.1rc0 (mac64)
Copyright (c) 2019, Gurobi Optimization, LLC

Read LP format model from file wormhole_bd45de45-91c1-442d-a205-0a65f477334f.lp
Reading time = 0.00 seconds
obj: 67 rows, 39 columns, 154 nonzeros
Optimize a model with 67 rows, 39 columns and 154 nonzeros
Variable types: 0 continuous, 39 integer (39 binary)
Coefficient statistics:
  Matrix range     [1e+00, 1e+00]
  Objective range  [2e+00, 2e+00]
  Bounds range     [1e+00, 1e+00]
  RHS range        [1e+00, 1e+00]
Found heuristic solution: objective 18.0000000
Found heuristic solution: objective 12.0000000
Presolve removed 37 rows and 12 columns
Presolve time: 0.00s
Presolved: 30 rows, 27 columns, 77 nonzeros
Variable types: 0 continuous, 27 integer (27 binary)

Root relaxation: objective 9.073171e+00, 26 iterations, 0.00 seconds

    Nodes    |    Current Node    |     Objective Bounds      |     Work
 Expl Unexpl |  Obj  Depth IntInf | Incumbent    BestBd   Gap | It/Node Time

*    0     0               0      10.0000000   10.00000  0.00%     -    0s

Explored 0 nodes (32 simplex iterations) in 0.00 seconds
Thread count was 4 (of 4 available processors)

Solution count 3: 10 12 18 

Optimal solution found (tolerance 1.00e-04)
Best objective 1.000000000000e+01, best bound 1.000000000000e+01, gap 0.0000%

Wrote result file '67114921-09ec-4795-93d5-6b8f3465b7ba.sol'


Gurobi 8.1.1 (mac64) logging started Thu Oct 17 12:24:01 2019

Academic license - for non-commercial use only

Gurobi Optimizer version 8.1.1 build v8.1.1rc0 (mac64)
Copyright (c) 2019, Gurobi Optimization, LLC

Read LP format model from file wormhole_fa6366ba-86f1-4204-a9f1-3e9c225b9310.lp
Reading time = 0.00 seconds
obj: 67 rows, 39 columns, 154 nonzeros
Optimize a model with 67 rows, 39 columns and 154 nonzeros
Variable types: 0 continuous, 39 integer (39 binary)
Coefficient statistics:
  Matrix range     [1e+00, 1e+00]
  Objective range  [2e+00, 2e+00]
  Bounds range     [1e+00, 1e+00]
  RHS range        [1e+00, 1e+00]
Found heuristic solution: objective 18.0000000
Presolve removed 37 rows and 12 columns
Presolve time: 0.00s
Presolved: 30 rows, 27 columns, 77 nonzeros
Variable types: 0 continuous, 27 integer (27 binary)

Root relaxation: objective 9.073171e+00, 26 iterations, 0.00 seconds

    Nodes    |    Current Node    |     Objective Bounds      |     Work
 Expl Unexpl |  Obj  Depth IntInf | Incumbent    BestBd   Gap | It/Node Time

     0     0    9.07317    0   24   18.00000    9.07317  49.6%     -    0s
H    0     0                      14.0000000    9.07317  35.2%     -    0s
H    0     0                      12.0000000    9.07317  24.4%     -    0s
*    0     0               0      10.0000000   10.00000  0.00%     -    0s

Cutting planes:
  Gomory: 1
  Zero half: 2

Explored 1 nodes (33 simplex iterations) in 0.01 seconds
Thread count was 4 (of 4 available processors)

Solution count 4: 10 12 14 18 

Optimal solution found (tolerance 1.00e-04)
Best objective 1.000000000000e+01, best bound 1.000000000000e+01, gap 0.0000%

Wrote result file 'dd42aea7-96d0-4f06-97cf-38ed676c6a43.sol'


Gurobi 8.1.1 (mac64) logging started Thu Oct 17 12:25:09 2019

Academic license - for non-commercial use only

Gurobi Optimizer version 8.1.1 build v8.1.1rc0 (mac64)
Copyright (c) 2019, Gurobi Optimization, LLC

Read LP format model from file wormhole_6f76ac8b-4502-4ab8-b8b6-9919d501404c.lp
Reading time = 0.00 seconds
obj: 67 rows, 39 columns, 154 nonzeros
Optimize a model with 67 rows, 39 columns and 154 nonzeros
Variable types: 0 continuous, 39 integer (39 binary)
Coefficient statistics:
  Matrix range     [1e+00, 1e+00]
  Objective range  [2e+00, 2e+00]
  Bounds range     [1e+00, 1e+00]
  RHS range        [1e+00, 1e+00]
Found heuristic solution: objective 18.0000000
Found heuristic solution: objective 12.0000000
Presolve removed 37 rows and 12 columns
Presolve time: 0.00s
Presolved: 30 rows, 27 columns, 77 nonzeros
Variable types: 0 continuous, 27 integer (27 binary)

Root relaxation: objective 9.073171e+00, 26 iterations, 0.00 seconds

    Nodes    |    Current Node    |     Objective Bounds      |     Work
 Expl Unexpl |  Obj  Depth IntInf | Incumbent    BestBd   Gap | It/Node Time

*    0     0               0      10.0000000   10.00000  0.00%     -    0s

Explored 0 nodes (30 simplex iterations) in 0.00 seconds
Thread count was 4 (of 4 available processors)

Solution count 3: 10 12 18 

Optimal solution found (tolerance 1.00e-04)
Best objective 1.000000000000e+01, best bound 1.000000000000e+01, gap 0.0000%

Wrote result file 'b786c917-8a41-4f77-9197-548f473fa3c9.sol'


Gurobi 8.1.1 (mac64) logging started Thu Oct 17 12:39:00 2019

Academic license - for non-commercial use only

Gurobi Optimizer version 8.1.1 build v8.1.1rc0 (mac64)
Copyright (c) 2019, Gurobi Optimization, LLC

Read LP format model from file wormhole_e8796069-0473-45ef-9e43-f6f8ebd85252.lp
Reading time = 0.00 seconds
obj: 67 rows, 39 columns, 154 nonzeros
Optimize a model with 67 rows, 39 columns and 154 nonzeros
Variable types: 0 continuous, 39 integer (39 binary)
Coefficient statistics:
  Matrix range     [1e+00, 1e+00]
  Objective range  [2e+00, 2e+00]
  Bounds range     [1e+00, 1e+00]
  RHS range        [1e+00, 1e+00]
Found heuristic solution: objective 18.0000000
Found heuristic solution: objective 12.0000000
Presolve removed 37 rows and 12 columns
Presolve time: 0.00s
Presolved: 30 rows, 27 columns, 77 nonzeros
Variable types: 0 continuous, 27 integer (27 binary)

Root relaxation: objective 9.073171e+00, 26 iterations, 0.00 seconds

    Nodes    |    Current Node    |     Objective Bounds      |     Work
 Expl Unexpl |  Obj  Depth IntInf | Incumbent    BestBd   Gap | It/Node Time

*    0     0               0      10.0000000   10.00000  0.00%     -    0s

Explored 0 nodes (39 simplex iterations) in 0.00 seconds
Thread count was 4 (of 4 available processors)

Solution count 3: 10 12 18 

Optimal solution found (tolerance 1.00e-04)
Best objective 1.000000000000e+01, best bound 1.000000000000e+01, gap 0.0000%

Wrote result file '4620b4ae-0878-444d-b8ca-2ab9462cc99a.sol'


Gurobi 8.1.1 (mac64) logging started Thu Oct 17 12:39:20 2019

Academic license - for non-commercial use only

Gurobi Optimizer version 8.1.1 build v8.1.1rc0 (mac64)
Copyright (c) 2019, Gurobi Optimization, LLC

Read LP format model from file wormhole_a2d03336-5061-4b7f-9bd2-53593222f809.lp
Reading time = 0.00 seconds
obj: 67 rows, 39 columns, 154 nonzeros
Optimize a model with 67 rows, 39 columns and 154 nonzeros
Variable types: 0 continuous, 39 integer (39 binary)
Coefficient statistics:
  Matrix range     [1e+00, 1e+00]
  Objective range  [2e+00, 2e+00]
  Bounds range     [1e+00, 1e+00]
  RHS range        [1e+00, 1e+00]
Found heuristic solution: objective 18.0000000
Presolve removed 37 rows and 12 columns
Presolve time: 0.00s
Presolved: 30 rows, 27 columns, 77 nonzeros
Variable types: 0 continuous, 27 integer (27 binary)

Root relaxation: objective 9.073171e+00, 26 iterations, 0.00 seconds

    Nodes    |    Current Node    |     Objective Bounds      |     Work
 Expl Unexpl |  Obj  Depth IntInf | Incumbent    BestBd   Gap | It/Node Time

     0     0    9.07317    0   24   18.00000    9.07317  49.6%     -    0s
H    0     0                      10.0000000    9.07317  9.27%     -    0s

Explored 1 nodes (27 simplex iterations) in 0.00 seconds
Thread count was 4 (of 4 available processors)

Solution count 2: 10 18 

Optimal solution found (tolerance 1.00e-04)
Best objective 1.000000000000e+01, best bound 1.000000000000e+01, gap 0.0000%

Wrote result file '6aa132fc-d02e-43f8-825a-fb3325e1fd29.sol'


Gurobi 8.1.1 (mac64) logging started Thu Oct 17 12:40:41 2019

Academic license - for non-commercial use only

Gurobi Optimizer version 8.1.1 build v8.1.1rc0 (mac64)
Copyright (c) 2019, Gurobi Optimization, LLC

Read LP format model from file wormhole_ff5ea173-4c62-4b7c-8e28-29f8461219b7.lp
Reading time = 0.00 seconds
obj: 67 rows, 39 columns, 154 nonzeros
Optimize a model with 67 rows, 39 columns and 154 nonzeros
Variable types: 0 continuous, 39 integer (39 binary)
Coefficient statistics:
  Matrix range     [1e+00, 1e+00]
  Objective range  [2e+00, 2e+00]
  Bounds range     [1e+00, 1e+00]
  RHS range        [1e+00, 1e+00]
Found heuristic solution: objective 18.0000000
Found heuristic solution: objective 10.0000000
Presolve removed 41 rows and 14 columns
Presolve time: 0.00s
Presolved: 26 rows, 25 columns, 67 nonzeros
Variable types: 0 continuous, 25 integer (25 binary)

Root relaxation: cutoff, 10 iterations, 0.00 seconds

    Nodes    |    Current Node    |     Objective Bounds      |     Work
 Expl Unexpl |  Obj  Depth IntInf | Incumbent    BestBd   Gap | It/Node Time

     0     0     cutoff    0        10.00000   10.00000  0.00%     -    0s

Explored 0 nodes (10 simplex iterations) in 0.00 seconds
Thread count was 4 (of 4 available processors)

Solution count 2: 10 18 

Optimal solution found (tolerance 1.00e-04)
Best objective 1.000000000000e+01, best bound 1.000000000000e+01, gap 0.0000%

Wrote result file '40fc35b8-02b9-4430-a4f1-3898434b1e11.sol'


Gurobi 8.1.1 (mac64) logging started Thu Oct 17 12:40:44 2019

Academic license - for non-commercial use only

Gurobi Optimizer version 8.1.1 build v8.1.1rc0 (mac64)
Copyright (c) 2019, Gurobi Optimization, LLC

Read LP format model from file wormhole_f3161132-a79f-428b-8698-69c0ec647e05.lp
Reading time = 0.00 seconds
obj: 67 rows, 39 columns, 154 nonzeros
Optimize a model with 67 rows, 39 columns and 154 nonzeros
Variable types: 0 continuous, 39 integer (39 binary)
Coefficient statistics:
  Matrix range     [1e+00, 1e+00]
  Objective range  [2e+00, 2e+00]
  Bounds range     [1e+00, 1e+00]
  RHS range        [1e+00, 1e+00]
Found heuristic solution: objective 18.0000000
Presolve removed 37 rows and 12 columns
Presolve time: 0.00s
Presolved: 30 rows, 27 columns, 77 nonzeros
Variable types: 0 continuous, 27 integer (27 binary)

Root relaxation: objective 9.073171e+00, 26 iterations, 0.00 seconds

    Nodes    |    Current Node    |     Objective Bounds      |     Work
 Expl Unexpl |  Obj  Depth IntInf | Incumbent    BestBd   Gap | It/Node Time

     0     0    9.07317    0   24   18.00000    9.07317  49.6%     -    0s
H    0     0                      10.0000000    9.07317  9.27%     -    0s

Explored 1 nodes (27 simplex iterations) in 0.00 seconds
Thread count was 4 (of 4 available processors)

Solution count 2: 10 18 

Optimal solution found (tolerance 1.00e-04)
Best objective 1.000000000000e+01, best bound 1.000000000000e+01, gap 0.0000%

Wrote result file '789dc09c-0a6e-45c0-910b-5ec4c2b56c8b.sol'


Gurobi 8.1.1 (mac64) logging started Thu Oct 17 12:40:46 2019

Academic license - for non-commercial use only

Gurobi Optimizer version 8.1.1 build v8.1.1rc0 (mac64)
Copyright (c) 2019, Gurobi Optimization, LLC

Read LP format model from file wormhole_2f605bb2-4e17-4da7-8db2-13cb71e1a953.lp
Reading time = 0.00 seconds
obj: 67 rows, 39 columns, 154 nonzeros
Optimize a model with 67 rows, 39 columns and 154 nonzeros
Variable types: 0 continuous, 39 integer (39 binary)
Coefficient statistics:
  Matrix range     [1e+00, 1e+00]
  Objective range  [2e+00, 2e+00]
  Bounds range     [1e+00, 1e+00]
  RHS range        [1e+00, 1e+00]
Found heuristic solution: objective 18.0000000
Presolve removed 37 rows and 12 columns
Presolve time: 0.00s
Presolved: 30 rows, 27 columns, 77 nonzeros
Variable types: 0 continuous, 27 integer (27 binary)

Root relaxation: objective 9.073171e+00, 26 iterations, 0.00 seconds

    Nodes    |    Current Node    |     Objective Bounds      |     Work
 Expl Unexpl |  Obj  Depth IntInf | Incumbent    BestBd   Gap | It/Node Time

     0     0    9.07317    0   24   18.00000    9.07317  49.6%     -    0s
H    0     0                      14.0000000    9.07317  35.2%     -    0s
*    0     0               0      10.0000000   10.00000  0.00%     -    0s

Cutting planes:
  Gomory: 1
  Zero half: 1

Explored 1 nodes (34 simplex iterations) in 0.00 seconds
Thread count was 4 (of 4 available processors)

Solution count 3: 10 14 18 

Optimal solution found (tolerance 1.00e-04)
Best objective 1.000000000000e+01, best bound 1.000000000000e+01, gap 0.0000%

Wrote result file '1127c5ef-0d4f-4c70-852e-3d0e93a95f42.sol'


Gurobi 8.1.1 (mac64) logging started Thu Oct 17 12:40:48 2019

Academic license - for non-commercial use only

Gurobi Optimizer version 8.1.1 build v8.1.1rc0 (mac64)
Copyright (c) 2019, Gurobi Optimization, LLC

Read LP format model from file wormhole_4ca23fe2-80b1-4a9c-9e1e-b499b540cba2.lp
Reading time = 0.00 seconds
obj: 67 rows, 39 columns, 154 nonzeros
Optimize a model with 67 rows, 39 columns and 154 nonzeros
Variable types: 0 continuous, 39 integer (39 binary)
Coefficient statistics:
  Matrix range     [1e+00, 1e+00]
  Objective range  [2e+00, 2e+00]
  Bounds range     [1e+00, 1e+00]
  RHS range        [1e+00, 1e+00]
Found heuristic solution: objective 18.0000000
Found heuristic solution: objective 14.0000000
Presolve removed 37 rows and 12 columns
Presolve time: 0.00s
Presolved: 30 rows, 27 columns, 77 nonzeros
Variable types: 0 continuous, 27 integer (27 binary)

Root relaxation: objective 9.073171e+00, 26 iterations, 0.00 seconds

    Nodes    |    Current Node    |     Objective Bounds      |     Work
 Expl Unexpl |  Obj  Depth IntInf | Incumbent    BestBd   Gap | It/Node Time

     0     0    9.07317    0   24   14.00000    9.07317  35.2%     -    0s
H    0     0                      12.0000000    9.07317  24.4%     -    0s
H    0     0                      10.0000000    9.07317  9.27%     -    0s

Explored 1 nodes (27 simplex iterations) in 0.00 seconds
Thread count was 4 (of 4 available processors)

Solution count 4: 10 12 14 18 

Optimal solution found (tolerance 1.00e-04)
Best objective 1.000000000000e+01, best bound 1.000000000000e+01, gap 0.0000%

Wrote result file '3e65e451-fff4-4a22-bb69-b135149bf9f0.sol'


Gurobi 8.1.1 (mac64) logging started Thu Oct 17 12:40:49 2019

Academic license - for non-commercial use only

Gurobi Optimizer version 8.1.1 build v8.1.1rc0 (mac64)
Copyright (c) 2019, Gurobi Optimization, LLC

Read LP format model from file wormhole_29a0f87a-1f55-41d6-bf6d-bd0b18529e48.lp
Reading time = 0.00 seconds
obj: 67 rows, 39 columns, 154 nonzeros
Optimize a model with 67 rows, 39 columns and 154 nonzeros
Variable types: 0 continuous, 39 integer (39 binary)
Coefficient statistics:
  Matrix range     [1e+00, 1e+00]
  Objective range  [2e+00, 2e+00]
  Bounds range     [1e+00, 1e+00]
  RHS range        [1e+00, 1e+00]
Found heuristic solution: objective 18.0000000
Presolve removed 37 rows and 12 columns
Presolve time: 0.00s
Presolved: 30 rows, 27 columns, 77 nonzeros
Variable types: 0 continuous, 27 integer (27 binary)

Root relaxation: objective 9.073171e+00, 26 iterations, 0.00 seconds

    Nodes    |    Current Node    |     Objective Bounds      |     Work
 Expl Unexpl |  Obj  Depth IntInf | Incumbent    BestBd   Gap | It/Node Time

     0     0    9.07317    0   24   18.00000    9.07317  49.6%     -    0s
H    0     0                      12.0000000    9.07317  24.4%     -    0s
H    0     0                      10.0000000    9.07317  9.27%     -    0s

Explored 1 nodes (27 simplex iterations) in 0.00 seconds
Thread count was 4 (of 4 available processors)

Solution count 3: 10 12 18 

Optimal solution found (tolerance 1.00e-04)
Best objective 1.000000000000e+01, best bound 1.000000000000e+01, gap 0.0000%

Wrote result file '2de4ba9b-4881-4da9-b11d-c502931709bd.sol'


Gurobi 8.1.1 (mac64) logging started Thu Oct 17 16:11:17 2019

Academic license - for non-commercial use only

Gurobi Optimizer version 8.1.1 build v8.1.1rc0 (mac64)
Copyright (c) 2019, Gurobi Optimization, LLC

Read LP format model from file wormhole_b0c5f323-7be1-490f-b37f-657e87cf376c.lp
Reading time = 0.00 seconds
obj: 67 rows, 39 columns, 154 nonzeros
Optimize a model with 67 rows, 39 columns and 154 nonzeros
Variable types: 0 continuous, 39 integer (39 binary)
Coefficient statistics:
  Matrix range     [1e+00, 1e+00]
  Objective range  [2e+00, 2e+00]
  Bounds range     [1e+00, 1e+00]
  RHS range        [1e+00, 1e+00]
Found heuristic solution: objective 18.0000000
Found heuristic solution: objective 16.0000000
Presolve removed 37 rows and 12 columns
Presolve time: 0.01s
Presolved: 30 rows, 27 columns, 77 nonzeros
Variable types: 0 continuous, 27 integer (27 binary)

Root relaxation: objective 9.073171e+00, 26 iterations, 0.00 seconds

    Nodes    |    Current Node    |     Objective Bounds      |     Work
 Expl Unexpl |  Obj  Depth IntInf | Incumbent    BestBd   Gap | It/Node Time

     0     0    9.07317    0   24   16.00000    9.07317  43.3%     -    0s
H    0     0                      14.0000000    9.07317  35.2%     -    0s
*    0     0               0      10.0000000   10.00000  0.00%     -    0s

Cutting planes:
  Gomory: 1
  Zero half: 1

Explored 1 nodes (35 simplex iterations) in 0.02 seconds
Thread count was 4 (of 4 available processors)

Solution count 4: 10 14 16 18 

Optimal solution found (tolerance 1.00e-04)
Best objective 1.000000000000e+01, best bound 1.000000000000e+01, gap 0.0000%

Wrote result file 'e51ab01d-b228-4045-adb6-6588c9d08a2f.sol'


Gurobi 8.1.1 (mac64) logging started Thu Oct 17 16:12:04 2019

Academic license - for non-commercial use only

Gurobi Optimizer version 8.1.1 build v8.1.1rc0 (mac64)
Copyright (c) 2019, Gurobi Optimization, LLC

Read LP format model from file wormhole_6f5b0a37-05d9-4237-ab31-6d906c5c7d5b.lp
Reading time = 0.00 seconds
obj: 67 rows, 39 columns, 154 nonzeros
Optimize a model with 67 rows, 39 columns and 154 nonzeros
Variable types: 0 continuous, 39 integer (39 binary)
Coefficient statistics:
  Matrix range     [1e+00, 1e+00]
  Objective range  [2e+00, 2e+00]
  Bounds range     [1e+00, 1e+00]
  RHS range        [1e+00, 1e+00]
Found heuristic solution: objective 18.0000000
Found heuristic solution: objective 12.0000000
Presolve removed 37 rows and 12 columns
Presolve time: 0.00s
Presolved: 30 rows, 27 columns, 77 nonzeros
Variable types: 0 continuous, 27 integer (27 binary)

Root relaxation: objective 9.073171e+00, 26 iterations, 0.00 seconds

    Nodes    |    Current Node    |     Objective Bounds      |     Work
 Expl Unexpl |  Obj  Depth IntInf | Incumbent    BestBd   Gap | It/Node Time

*    0     0               0      10.0000000   10.00000  0.00%     -    0s

Explored 0 nodes (30 simplex iterations) in 0.00 seconds
Thread count was 4 (of 4 available processors)

Solution count 3: 10 12 18 

Optimal solution found (tolerance 1.00e-04)
Best objective 1.000000000000e+01, best bound 1.000000000000e+01, gap 0.0000%

Wrote result file 'b31d2de6-9657-443c-8990-dd77e03bdbf1.sol'


Gurobi 8.1.1 (mac64) logging started Thu Oct 17 16:32:22 2019

Academic license - for non-commercial use only

Gurobi Optimizer version 8.1.1 build v8.1.1rc0 (mac64)
Copyright (c) 2019, Gurobi Optimization, LLC

Read LP format model from file wormhole_03229853-e9c9-4b1d-8827-fc84fdfb7830.lp
Reading time = 0.00 seconds
obj: 67 rows, 39 columns, 154 nonzeros
Optimize a model with 67 rows, 39 columns and 154 nonzeros
Variable types: 0 continuous, 39 integer (39 binary)
Coefficient statistics:
  Matrix range     [1e+00, 1e+00]
  Objective range  [2e+00, 2e+00]
  Bounds range     [1e+00, 1e+00]
  RHS range        [1e+00, 1e+00]
Found heuristic solution: objective 18.0000000
Presolve removed 37 rows and 12 columns
Presolve time: 0.01s
Presolved: 30 rows, 27 columns, 77 nonzeros
Variable types: 0 continuous, 27 integer (27 binary)

Root relaxation: objective 9.073171e+00, 26 iterations, 0.00 seconds

    Nodes    |    Current Node    |     Objective Bounds      |     Work
 Expl Unexpl |  Obj  Depth IntInf | Incumbent    BestBd   Gap | It/Node Time

     0     0    9.07317    0   24   18.00000    9.07317  49.6%     -    0s
H    0     0                      14.0000000    9.07317  35.2%     -    0s
H    0     0                      12.0000000    9.07317  24.4%     -    0s
H    0     0                      10.0000000    9.07317  9.27%     -    0s

Explored 1 nodes (27 simplex iterations) in 0.02 seconds
Thread count was 4 (of 4 available processors)

Solution count 4: 10 12 14 18 

Optimal solution found (tolerance 1.00e-04)
Best objective 1.000000000000e+01, best bound 1.000000000000e+01, gap 0.0000%

Wrote result file '2c10bc7c-40ff-41d0-abd2-282e53f274a4.sol'


Gurobi 8.1.1 (mac64) logging started Thu Oct 17 16:35:15 2019

Academic license - for non-commercial use only

Gurobi Optimizer version 8.1.1 build v8.1.1rc0 (mac64)
Copyright (c) 2019, Gurobi Optimization, LLC

Read LP format model from file wormhole_33b57d26-11d8-4d46-a25b-ef07dc6d09a3.lp
Reading time = 0.00 seconds
obj: 67 rows, 39 columns, 154 nonzeros
Optimize a model with 67 rows, 39 columns and 154 nonzeros
Variable types: 0 continuous, 39 integer (39 binary)
Coefficient statistics:
  Matrix range     [1e+00, 1e+00]
  Objective range  [2e+00, 2e+00]
  Bounds range     [1e+00, 1e+00]
  RHS range        [1e+00, 1e+00]
Found heuristic solution: objective 18.0000000
Found heuristic solution: objective 12.0000000
Presolve removed 37 rows and 12 columns
Presolve time: 0.00s
Presolved: 30 rows, 27 columns, 77 nonzeros
Variable types: 0 continuous, 27 integer (27 binary)

Root relaxation: objective 9.073171e+00, 26 iterations, 0.00 seconds

    Nodes    |    Current Node    |     Objective Bounds      |     Work
 Expl Unexpl |  Obj  Depth IntInf | Incumbent    BestBd   Gap | It/Node Time

*    0     0               0      10.0000000   10.00000  0.00%     -    0s

Explored 0 nodes (31 simplex iterations) in 0.00 seconds
Thread count was 4 (of 4 available processors)

Solution count 3: 10 12 18 

Optimal solution found (tolerance 1.00e-04)
Best objective 1.000000000000e+01, best bound 1.000000000000e+01, gap 0.0000%

Wrote result file '6df94131-1344-4443-b1e3-80462aa9e693.sol'


Gurobi 8.1.1 (mac64) logging started Thu Oct 17 16:46:51 2019

Academic license - for non-commercial use only

Gurobi Optimizer version 8.1.1 build v8.1.1rc0 (mac64)
Copyright (c) 2019, Gurobi Optimization, LLC

Read LP format model from file wormhole_ac26c7ff-d4bc-42b5-aee0-7b52f92644bf.lp
Reading time = 0.00 seconds
obj: 67 rows, 39 columns, 154 nonzeros
Optimize a model with 67 rows, 39 columns and 154 nonzeros
Variable types: 0 continuous, 39 integer (39 binary)
Coefficient statistics:
  Matrix range     [1e+00, 1e+00]
  Objective range  [2e+00, 2e+00]
  Bounds range     [1e+00, 1e+00]
  RHS range        [1e+00, 1e+00]
Found heuristic solution: objective 18.0000000
Found heuristic solution: objective 12.0000000
Presolve removed 37 rows and 12 columns
Presolve time: 0.00s
Presolved: 30 rows, 27 columns, 77 nonzeros
Variable types: 0 continuous, 27 integer (27 binary)

Root relaxation: objective 9.073171e+00, 26 iterations, 0.00 seconds

    Nodes    |    Current Node    |     Objective Bounds      |     Work
 Expl Unexpl |  Obj  Depth IntInf | Incumbent    BestBd   Gap | It/Node Time

*    0     0               0      10.0000000   10.00000  0.00%     -    0s

Explored 0 nodes (32 simplex iterations) in 0.00 seconds
Thread count was 4 (of 4 available processors)

Solution count 3: 10 12 18 

Optimal solution found (tolerance 1.00e-04)
Best objective 1.000000000000e+01, best bound 1.000000000000e+01, gap 0.0000%

Wrote result file '7ed4f505-1fd3-492f-9f81-462e408e131e.sol'


Gurobi 8.1.1 (mac64) logging started Thu Oct 17 20:35:07 2019

Academic license - for non-commercial use only

Gurobi Optimizer version 8.1.1 build v8.1.1rc0 (mac64)
Copyright (c) 2019, Gurobi Optimization, LLC

Read LP format model from file wormhole_d1a66811-e2c1-47d5-893c-1ebe13c7ac74.lp
Reading time = 0.00 seconds
obj: 67 rows, 39 columns, 154 nonzeros
Optimize a model with 67 rows, 39 columns and 154 nonzeros
Variable types: 0 continuous, 39 integer (39 binary)
Coefficient statistics:
  Matrix range     [1e+00, 1e+00]
  Objective range  [2e+00, 2e+00]
  Bounds range     [1e+00, 1e+00]
  RHS range        [1e+00, 1e+00]
Found heuristic solution: objective 18.0000000
Found heuristic solution: objective 12.0000000
Presolve removed 37 rows and 12 columns
Presolve time: 0.01s
Presolved: 30 rows, 27 columns, 77 nonzeros
Variable types: 0 continuous, 27 integer (27 binary)

Root relaxation: objective 9.073171e+00, 26 iterations, 0.00 seconds

    Nodes    |    Current Node    |     Objective Bounds      |     Work
 Expl Unexpl |  Obj  Depth IntInf | Incumbent    BestBd   Gap | It/Node Time

*    0     0               0      10.0000000   10.00000  0.00%     -    0s

Explored 0 nodes (38 simplex iterations) in 0.02 seconds
Thread count was 4 (of 4 available processors)

Solution count 3: 10 12 18 

Optimal solution found (tolerance 1.00e-04)
Best objective 1.000000000000e+01, best bound 1.000000000000e+01, gap 0.0000%

Wrote result file '4c2c6b2b-0785-41ae-9ca0-97f9d5f614a8.sol'


Gurobi 8.1.1 (mac64) logging started Thu Oct 17 20:46:02 2019

Academic license - for non-commercial use only

Gurobi Optimizer version 8.1.1 build v8.1.1rc0 (mac64)
Copyright (c) 2019, Gurobi Optimization, LLC

Read LP format model from file wormhole_f91fa1c5-69ae-43f8-8d52-20781a663a3d.lp
Reading time = 0.00 seconds
obj: 67 rows, 39 columns, 154 nonzeros
Optimize a model with 67 rows, 39 columns and 154 nonzeros
Variable types: 0 continuous, 39 integer (39 binary)
Coefficient statistics:
  Matrix range     [1e+00, 1e+00]
  Objective range  [2e+00, 2e+00]
  Bounds range     [1e+00, 1e+00]
  RHS range        [1e+00, 1e+00]
Found heuristic solution: objective 18.0000000
Found heuristic solution: objective 14.0000000
Presolve removed 37 rows and 12 columns
Presolve time: 0.00s
Presolved: 30 rows, 27 columns, 77 nonzeros
Variable types: 0 continuous, 27 integer (27 binary)

Root relaxation: objective 9.073171e+00, 26 iterations, 0.00 seconds

    Nodes    |    Current Node    |     Objective Bounds      |     Work
 Expl Unexpl |  Obj  Depth IntInf | Incumbent    BestBd   Gap | It/Node Time

     0     0    9.07317    0   24   14.00000    9.07317  35.2%     -    0s
H    0     0                      12.0000000    9.07317  24.4%     -    0s
*    0     0               0      10.0000000   10.00000  0.00%     -    0s

Cutting planes:
  Gomory: 1
  Zero half: 2

Explored 1 nodes (37 simplex iterations) in 0.01 seconds
Thread count was 4 (of 4 available processors)

Solution count 4: 10 12 14 18 

Optimal solution found (tolerance 1.00e-04)
Best objective 1.000000000000e+01, best bound 1.000000000000e+01, gap 0.0000%

Wrote result file '0d010d29-7f45-4e05-973e-3f84661dd86b.sol'


Gurobi 8.1.1 (mac64) logging started Thu Oct 17 20:47:35 2019

Academic license - for non-commercial use only

Gurobi Optimizer version 8.1.1 build v8.1.1rc0 (mac64)
Copyright (c) 2019, Gurobi Optimization, LLC

Read LP format model from file wormhole_a557c9e0-eac1-4848-874d-4e8f96efef52.lp
Reading time = 0.00 seconds
obj: 67 rows, 39 columns, 154 nonzeros
Optimize a model with 67 rows, 39 columns and 154 nonzeros
Variable types: 0 continuous, 39 integer (39 binary)
Coefficient statistics:
  Matrix range     [1e+00, 1e+00]
  Objective range  [2e+00, 2e+00]
  Bounds range     [1e+00, 1e+00]
  RHS range        [1e+00, 1e+00]
Found heuristic solution: objective 18.0000000
Presolve removed 37 rows and 12 columns
Presolve time: 0.00s
Presolved: 30 rows, 27 columns, 77 nonzeros
Variable types: 0 continuous, 27 integer (27 binary)

Root relaxation: objective 9.073171e+00, 26 iterations, 0.00 seconds

    Nodes    |    Current Node    |     Objective Bounds      |     Work
 Expl Unexpl |  Obj  Depth IntInf | Incumbent    BestBd   Gap | It/Node Time

     0     0    9.07317    0   24   18.00000    9.07317  49.6%     -    0s
H    0     0                      14.0000000    9.07317  35.2%     -    0s
H    0     0                      12.0000000    9.07317  24.4%     -    0s
*    0     0               0      10.0000000   10.00000  0.00%     -    0s

Cutting planes:
  Gomory: 1
  Zero half: 1

Explored 1 nodes (37 simplex iterations) in 0.00 seconds
Thread count was 4 (of 4 available processors)

Solution count 4: 10 12 14 18 

Optimal solution found (tolerance 1.00e-04)
Best objective 1.000000000000e+01, best bound 1.000000000000e+01, gap 0.0000%

Wrote result file '5e756687-2c05-4286-9499-2247fbab8dd6.sol'


Gurobi 8.1.1 (mac64) logging started Thu Oct 17 20:47:56 2019

Academic license - for non-commercial use only

Gurobi Optimizer version 8.1.1 build v8.1.1rc0 (mac64)
Copyright (c) 2019, Gurobi Optimization, LLC

Read LP format model from file wormhole_0f2856ea-d667-4e59-a553-02610ad4ebf3.lp
Reading time = 0.00 seconds
obj: 67 rows, 39 columns, 154 nonzeros
Optimize a model with 67 rows, 39 columns and 154 nonzeros
Variable types: 0 continuous, 39 integer (39 binary)
Coefficient statistics:
  Matrix range     [1e+00, 1e+00]
  Objective range  [2e+00, 2e+00]
  Bounds range     [1e+00, 1e+00]
  RHS range        [1e+00, 1e+00]
Found heuristic solution: objective 18.0000000
Presolve removed 37 rows and 12 columns
Presolve time: 0.00s
Presolved: 30 rows, 27 columns, 77 nonzeros
Variable types: 0 continuous, 27 integer (27 binary)

Root relaxation: objective 9.073171e+00, 26 iterations, 0.00 seconds

    Nodes    |    Current Node    |     Objective Bounds      |     Work
 Expl Unexpl |  Obj  Depth IntInf | Incumbent    BestBd   Gap | It/Node Time

     0     0    9.07317    0   24   18.00000    9.07317  49.6%     -    0s
H    0     0                      10.0000000    9.07317  9.27%     -    0s

Explored 1 nodes (27 simplex iterations) in 0.00 seconds
Thread count was 4 (of 4 available processors)

Solution count 2: 10 18 

Optimal solution found (tolerance 1.00e-04)
Best objective 1.000000000000e+01, best bound 1.000000000000e+01, gap 0.0000%

Wrote result file 'c3fce335-bbe6-44c5-b4fe-b30c29400e64.sol'


Gurobi 8.1.1 (mac64) logging started Thu Oct 17 20:48:06 2019

Academic license - for non-commercial use only

Gurobi Optimizer version 8.1.1 build v8.1.1rc0 (mac64)
Copyright (c) 2019, Gurobi Optimization, LLC

Read LP format model from file wormhole_bd087d54-4ad6-4409-87d1-f7734850f31c.lp
Reading time = 0.00 seconds
obj: 67 rows, 39 columns, 154 nonzeros
Optimize a model with 67 rows, 39 columns and 154 nonzeros
Variable types: 0 continuous, 39 integer (39 binary)
Coefficient statistics:
  Matrix range     [1e+00, 1e+00]
  Objective range  [2e+00, 2e+00]
  Bounds range     [1e+00, 1e+00]
  RHS range        [1e+00, 1e+00]
Found heuristic solution: objective 18.0000000
Found heuristic solution: objective 12.0000000
Presolve removed 37 rows and 12 columns
Presolve time: 0.00s
Presolved: 30 rows, 27 columns, 77 nonzeros
Variable types: 0 continuous, 27 integer (27 binary)

Root relaxation: objective 9.073171e+00, 26 iterations, 0.00 seconds

    Nodes    |    Current Node    |     Objective Bounds      |     Work
 Expl Unexpl |  Obj  Depth IntInf | Incumbent    BestBd   Gap | It/Node Time

*    0     0               0      10.0000000   10.00000  0.00%     -    0s

Explored 0 nodes (31 simplex iterations) in 0.00 seconds
Thread count was 4 (of 4 available processors)

Solution count 3: 10 12 18 

Optimal solution found (tolerance 1.00e-04)
Best objective 1.000000000000e+01, best bound 1.000000000000e+01, gap 0.0000%

Wrote result file 'e0e8b37d-fab0-4028-a8bb-5fca1cb3997c.sol'

